(set-logic HORN)
(declare-fun state (Int Int Int (Array Int Int) Int Int Bool Bool Int Int Int) Bool)
(assert (forall ((|A_4| Int) (|.y.5| Int) (|.y.6| Int) (|B_4| (Array Int Int)) (|C_3| Int) (|.y.7| Int) (|.loc.8| Bool) (|.loc.9| Bool) (|N_0| Int) (|I_4| Int) (|I_5| Int) (|.x.10| (Array Int Int)) (|.loc.13| Bool) (|K_3| Int) (|.x.9| Int) (|.x.11| Int) (|.loc.12| Bool) (|.y.10| Int) (|.y.11| Int) (|.xtv.1| Int) (|.xtv.2| Int) (|.xpv.1| Int)) (=> (and (not .loc.8) (not .loc.9)) (state |A_4| |.y.5| |.y.6| |B_4| |C_3| |.y.7| |.loc.8| |.loc.9| |N_0| |I_4| |I_5|))))
(assert (forall ((|A_4| Int) (|.y.5| Int) (|.y.6| Int) (|B_4| (Array Int Int)) (|C_3| Int) (|.y.7| Int) (|.loc.8| Bool) (|.loc.9| Bool) (|N_0| Int) (|I_4| Int) (|I_5| Int) (|.x.10| (Array Int Int)) (|.loc.13| Bool) (|K_3| Int) (|.x.9| Int) (|.x.11| Int) (|.loc.12| Bool) (|.y.10| Int) (|.y.11| Int) (|.xtv.1| Int) (|.xtv.2| Int) (|.xpv.1| Int)) (=> (and (state |A_4| |.y.5| |.y.6| |B_4| |C_3| |.y.7| |.loc.8| |.loc.9| |N_0| |I_4| |I_5|) (let ((.def_21 (not .loc.8))) (let ((.def_22 (not .loc.9))) (let ((.def_32 (<= A_4 0))) (let ((.def_33 (or (not (<= (+ A_4 C_3) 0)) .def_32))) (let ((.def_37 (<= (select B_4 (+ A_4 C_3)) (- 1)))) (let ((.def_44 (not (<= I_4 0)))) (let ((.def_66 (= A_4 .x.9))) (let ((.def_67 (and (not .def_32) .def_66))) (let ((.def_69 (= C_3 .x.11))) (let ((.def_77 (not .loc.12))) (let ((.def_86 (<= (to_int (* (/ 1 16777216) (to_real (* 16777216 C_3)))) .y.6))) (let ((.def_112 (not .loc.13))) (let ((.def_119 (<= .y.5 0))) (or (or (and (and (= B_4 .x.10) .loc.13) (or (or (and (or (and .def_21 (and (and .def_33 .def_37) (= K_3 0))) (and (or .def_32 .def_44) (and (= (+ .y.7 (* (- 1) K_3)) (- 1)) (and (= (+ A_4 (+ .y.7 (* (- 1) I_4))) 0) (and (not (<= C_3 .y.7)) (and .loc.8 (not (<= (select B_4 I_4) (- 1))))))))) (and (and .loc.9 (and .def_67 .def_69)) .loc.12)) (and (= .y.5 .x.9) (and (and (= .x.11 0) (and .def_22 (and .loc.8 .def_77))) .def_86))) (and (= (+ C_3 (* (- 1) .x.11)) (- 1)) (and .def_77 (and .def_21 (and .loc.9 (and .def_33 (and .def_67 (not .def_37))))))))) (and (not (<= .y.10 0)) (and (not (<= .x.11 0)) (and (= .y.11 0) (and (and .def_22 (and .loc.12 (and .def_21 .def_66))) .def_112))))) (and (= .y.5 .y.10) (and (or .def_44 .def_119) (and (not .def_86) (and (= (+ .y.5 (+ .y.6 (* (- 1) I_4))) 0) (and (not .def_119) (and (= (+ .y.6 (* (- 1) .y.11)) (- 1)) (and (= .x.10 (store B_4 I_4 N_0)) (and .def_112 (and .def_22 (and .loc.12 (and .loc.8 (and .def_66 .def_69))))))))))))))))))))))))))) (state |.x.9| |.y.10| |.y.11| |.x.10| |.x.11| |K_3| |.loc.12| |.loc.13| |.xtv.1| |.xtv.2| |.xpv.1|))))
(assert (forall ((|A_4| Int) (|.y.5| Int) (|.y.6| Int) (|B_4| (Array Int Int)) (|C_3| Int) (|.y.7| Int) (|.loc.8| Bool) (|.loc.9| Bool) (|N_0| Int) (|I_4| Int) (|I_5| Int) (|.x.10| (Array Int Int)) (|.loc.13| Bool) (|K_3| Int) (|.x.9| Int) (|.x.11| Int) (|.loc.12| Bool) (|.y.10| Int) (|.y.11| Int) (|.xtv.1| Int) (|.xtv.2| Int) (|.xpv.1| Int)) (=> (state |A_4| |.y.5| |.y.6| |B_4| |C_3| |.y.7| |.loc.8| |.loc.9| |N_0| |I_4| |I_5|) (let ((.def_32 (<= A_4 0))) (not (and (and .loc.8 .loc.9) (and (and (<= (select B_4 I_5) (- 1)) (and (and (not (<= C_3 .y.7)) (not .def_32)) (= (+ A_4 (+ .y.7 (* (- 1) I_5))) 0))) (or .def_32 (not (<= I_5 0))))))))))
(check-sat)
